0 16
1 17
2 2
3 0
4 14
5 4
6 14
7 1
8 13
9 10
10 11
11 7
12 9
13 4
14 4
15 0
16 5
17 1
18 3
19 13
20 17
21 2
22 14
23 12
24 6
25 7
26 8
27 11
28 11
29 16
30 0
31 9
32 15
33 9
34 16
35 11
36 17
37 12
38 9
39 4
40 5
41 3
42 11
43 2
44 14
45 6
46 5
47 12
48 1
49 16
50 3
51 15
52 8
53 1
54 0
55 13
56 10
57 6
58 14
59 10
60 3
61 16
62 14
63 7
64 0
65 6
66 12
67 7
68 8
69 15
70 4
71 17
72 12
73 16
74 4
75 17
76 14
77 2
78 10
79 7
80 0
